p cnf 86 287
-4 -2 0
-4 -3 0
2 3 4 0
-5 -4 0
-5 4 0
1 -5 -6 0
-1 5 -6 0
1 5 6 0
-1 -5 6 0
-9 7 0
-9 -8 0
-7 8 9 0
-11 9 0
-11 10 0
-9 -10 11 0
12 -3 0
12 11 0
3 -11 -12 0
-10 5 -13 0
10 -5 -13 0
-10 -5 13 0
10 5 13 0
12 13 -14 0
-12 -13 -14 0
12 -13 14 0
-12 13 14 0
-17 15 0
-17 16 0
-15 -16 17 0
7 18 0
-7 18 0
-5 -1 -19 0
5 1 -19 0
-5 1 19 0
5 -1 19 0
-20 18 0
-20 19 0
-18 -19 20 0
-21 17 0
-21 -20 0
-17 20 21 0
23 -22 0
23 2 0
22 -2 -23 0
-24 21 0
-24 23 0
-21 -23 24 0
-25 -14 0
-25 -24 0
14 24 25 0
26 6 0
26 -25 0
-6 25 -26 0
-28 27 0
-28 5 0
-27 -5 28 0
29 -28 0
29 8 0
28 -8 -29 0
22 7 -30 0
-22 -7 -30 0
22 -7 30 0
-22 7 30 0
-9 30 -31 0
9 -30 -31 0
-9 -30 31 0
9 30 31 0
32 29 0
32 31 0
-29 -31 -32 0
-34 33 0
-34 -4 0
-33 4 34 0
-35 22 0
-35 -34 0
-22 34 35 0
36 3 0
36 -5 0
-3 5 -36 0
-37 15 0
-37 27 0
-15 -27 37 0
1 37 -38 0
-1 -37 -38 0
1 -37 38 0
-1 37 38 0
-36 -38 -39 0
36 38 -39 0
-36 38 39 0
36 -38 39 0
11 -28 -40 0
-11 28 -40 0
11 28 40 0
-11 -28 40 0
-41 -4 0
-41 -5 0
4 5 41 0
42 40 0
42 41 0
-40 -41 -42 0
-43 3 0
-43 42 0
-3 -42 43 0
-5 43 -44 0
5 -43 -44 0
-5 -43 44 0
5 43 44 0
-45 39 0
-45 44 0
-39 -44 45 0
46 35 0
46 -45 0
-35 45 -46 0
-47 -1 0
-47 -9 0
1 9 47 0
-49 -22 0
-49 48 0
22 -48 49 0
-50 47 0
-50 49 0
-47 -49 50 0
-51 41 0
-51 50 0
-41 -50 51 0
46 51 -52 0
-46 -51 -52 0
46 -51 52 0
-46 51 52 0
-53 -9 0
-53 -18 0
9 18 53 0
-52 53 -54 0
52 -53 -54 0
-52 -53 54 0
52 53 54 0
55 -32 0
55 54 0
32 -54 -55 0
-26 55 -56 0
26 -55 -56 0
-26 -55 56 0
26 55 56 0
57 -11 0
57 -10 0
11 10 -57 0
58 57 0
58 -43 0
-57 43 -58 0
-59 -7 0
-59 7 0
8 59 -60 0
-8 -59 -60 0
8 -59 60 0
-8 59 60 0
-33 -30 -61 0
33 30 -61 0
-33 30 61 0
33 -30 61 0
62 -9 0
62 -10 0
9 10 -62 0
-62 -63 -64 0
62 63 -64 0
-62 63 64 0
62 -63 64 0
-65 1 0
-65 -33 0
-1 33 65 0
-64 65 -66 0
64 -65 -66 0
-64 -65 66 0
64 65 66 0
-67 -61 0
-67 -66 0
61 66 67 0
-60 -67 -68 0
60 67 -68 0
-60 67 68 0
60 -67 68 0
-58 -68 -69 0
58 68 -69 0
-58 68 69 0
58 -68 69 0
3 1 -70 0
-3 -1 -70 0
3 -1 70 0
-3 1 70 0
-71 -70 0
-71 49 0
70 -49 71 0
-73 -71 0
-73 -72 0
71 72 73 0
-74 16 0
-74 -73 0
-16 73 74 0
75 -10 0
75 -74 0
10 74 -75 0
-76 15 0
-76 -75 0
-15 75 76 0
77 7 0
77 50 0
-7 -50 -77 0
-3 -22 -78 0
3 22 -78 0
-3 22 78 0
3 -22 78 0
79 77 0
79 -78 0
-77 78 -79 0
-76 -79 -80 0
76 79 -80 0
-76 79 80 0
76 -79 80 0
-11 10 -81 0
11 -10 -81 0
-11 -10 81 0
11 10 81 0
82 -80 0
82 -81 0
80 81 -82 0
83 -11 0
83 16 0
11 -16 -83 0
82 -83 -84 0
-82 83 -84 0
82 83 84 0
-82 -83 84 0
-69 -84 -85 0
69 84 -85 0
-69 84 85 0
69 -84 85 0
-86 56 0
-86 85 0
-56 -85 86 0
-22 -34 0
-65 56 -61 0
-49 -8 0
60 -58 13 28 -33 0
-57 -73 85 55 0
-33 -61 -74 -35 73 0
-8 -25 -31 -48 -58 0
-24 86 4 85 28 0
-48 -37 -69 -31 -15 -47 0
-86 -20 -22 0
-40 78 -83 0
-84 -37 67 65 -14 0
3 23 0
73 28 0
32 12 47 -27 -23 0
45 36 -47 6 -58 0
32 31 0
22 27 0
-81 -34 0
8 28 29 -6 0
30 40 0
22 1 78 23 0
60 5 -48 -36 0
14 -53 -47 65 56 13 0
-21 -19 -66 24 68 0
25 39 0
7 -80 -10 -67 -76 30 0
61 40 56 57 -82 0
-7 -78 -58 -66 0
-32 -71 0
63 -50 -67 -1 0
-67 -66 54 0
10 20 -19 40 -11 33 0
-45 29 -35 78 9 0
-32 -86 -9 0
15 -79 83 0
-11 -56 41 0
1 11 64 66 -86 21 0
38 -58 -14 40 -5 -26 0
12 1 -10 69 0
-18 52 0
-4 61 25 73 32 38 0
-45 -24 25 0
25 -22 -43 -21 6 0
-85 61 2 0
4 2 21 -64 0
5 -31 22 28 -69 0
83 -80 42 27 44 85 0
86 0
